WARNING: for repeatability, setting FPU to use double precision
============================[ Problem Statistics ]=============================
|                                                                             |
|  Number of variables:           100                                         |
|  Number of clauses:             449                                         |
|  Parse time:                   0.00 s                                       |
|  Simplification time:          0.00 s                                       |
|                                                                             |
============================[ Search Statistics ]==============================
| Conflicts |          ORIGINAL         |          LEARNT          | Progress |
|           |    Vars  Clauses Literals |    Limit  Clauses Lit/Cl |          |
===============================================================================
===============================================================================
restarts              : 1
conflicts             : 61             (25417 /sec)
decisions             : 96             (0.00 % random) (40000 /sec)
propagations          : 1383           (576250 /sec)
conflict literals     : 421            (9.07 % deleted)
Memory used           : 13.00 MB
CPU time              : 0.0024 s

SATISFIABLE
